<?xml version = "1.0" standalone="yes"?>
<!-- This file has been generated by DOcplex version 2.23.222  -->
<CPLEXSolution version="1.0">
 <header
   problemName="CVRP"
   objectiveValue="10500"
  />
 <variables>
  <variable name="x_0_1" index="0" value="1.00000"/>
  <variable name="x_0_3" index="2" value="1.00000"/>
  <variable name="x_0_6" index="5" value="1.00000"/>
  <variable name="x_0_7" index="6" value="1.00000"/>
  <variable name="x_0_8" index="7" value="1.00000"/>
  <variable name="x_0_9" index="8" value="1.00000"/>
  <variable name="x_0_11" index="10" value="1.00000"/>
  <variable name="x_0_12" index="11" value="1.00000"/>
  <variable name="x_0_13" index="12" value="1.00000"/>
  <variable name="x_0_16" index="15" value="1.00000"/>
  <variable name="x_0_17" index="16" value="1.00000"/>
  <variable name="x_1_2" index="19" value="1.00000"/>
  <variable name="x_2_0" index="36" value="1.00000"/>
  <variable name="x_3_4" index="57" value="1.00000"/>
  <variable name="x_4_0" index="72" value="1.00000"/>
  <variable name="x_5_0" index="90" value="1.00000"/>
  <variable name="x_6_5" index="113" value="1.00000"/>
  <variable name="x_7_18" index="143" value="1.00000"/>
  <variable name="x_8_0" index="144" value="1.00000"/>
  <variable name="x_9_14" index="175" value="1.00000"/>
  <variable name="x_10_0" index="180" value="1.00000"/>
  <variable name="x_11_15" index="212" value="1.00000"/>
  <variable name="x_12_0" index="216" value="1.00000"/>
  <variable name="x_13_0" index="234" value="1.00000"/>
  <variable name="x_14_0" index="252" value="1.00000"/>
  <variable name="x_15_0" index="270" value="1.00000"/>
  <variable name="x_16_0" index="288" value="1.00000"/>
  <variable name="x_17_0" index="306" value="1.00000"/>
  <variable name="x_18_10" index="334" value="1.00000"/>
  <variable name="u_1" index="342" value="40.00000"/>
  <variable name="u_2" index="343" value="71.00000"/>
  <variable name="u_3" index="344" value="17.00000"/>
  <variable name="u_4" index="345" value="50.00000"/>
  <variable name="u_5" index="346" value="71.00000"/>
  <variable name="u_6" index="347" value="30.00000"/>
  <variable name="u_7" index="348" value="12.00000"/>
  <variable name="u_8" index="349" value="57.00000"/>
  <variable name="u_9" index="350" value="42.00000"/>
  <variable name="u_10" index="351" value="70.00000"/>
  <variable name="u_11" index="352" value="20.00000"/>
  <variable name="u_12" index="353" value="55.00000"/>
  <variable name="u_13" index="354" value="53.00000"/>
  <variable name="u_14" index="355" value="51.00000"/>
  <variable name="u_15" index="356" value="67.00000"/>
  <variable name="u_16" index="357" value="41.00000"/>
  <variable name="u_17" index="358" value="70.00000"/>
  <variable name="u_18" index="359" value="15.00000"/>
 </variables>
</CPLEXSolution>
